
******************************************************************************
This program contains Ipopt, a library for large-scale nonlinear optimization.
 Ipopt is released as open source code under the Eclipse Public License (EPL).
         For more information visit http://projects.coin-or.org/Ipopt

This version of Ipopt was compiled from source code available at
    https://github.com/IDAES/Ipopt as part of the Institute for the Design of
    Advanced Energy Systems Process Systems Engineering Framework (IDAES PSE
    Framework) Copyright (c) 2018-2019. See https://github.com/IDAES/idaes-pse.

This version of Ipopt was compiled using HSL, a collection of Fortran codes
    for large-scale scientific computation.  All technical papers, sales and
    publicity material resulting from use of the HSL codes within IPOPT must
    contain the following acknowledgement:
        HSL, a collection of Fortran codes for large-scale scientific
        computation. See http://www.hsl.rl.ac.uk.
******************************************************************************

This is Ipopt version 3.13.2, running with linear solver ma27.

Number of nonzeros in equality constraint Jacobian...:     1210
Number of nonzeros in inequality constraint Jacobian.:        0
Number of nonzeros in Lagrangian Hessian.............:     1376

Total number of variables............................:      480
                     variables with only lower bounds:      128
                variables with lower and upper bounds:      288
                     variables with only upper bounds:        0
Total number of equality constraints.................:      477
Total number of inequality constraints...............:        0
        inequality constraints with only lower bounds:        0
   inequality constraints with lower and upper bounds:        0
        inequality constraints with only upper bounds:        0

iter    objective    inf_pr   inf_du lg(mu)  ||d||  lg(rg) alpha_du alpha_pr  ls
   0  0.0000000e+00 1.41e+00 1.42e-14  -1.0 0.00e+00    -  0.00e+00 0.00e+00   0
   1  6.9295199e-01 1.26e+00 1.21e+05  -1.0 1.25e+06    -  8.91e-02 5.60e-02f  4
   2  1.4473037e+00 1.21e+00 1.31e+05  -1.0 1.62e+06    -  8.69e-02 2.56e-02h  5
   3  5.3335098e+00 1.11e+00 2.33e+05  -1.0 2.00e+06    -  8.90e-02 7.06e-02h  4
   4  5.5977486e+00 1.11e+00 2.33e+05  -1.0 3.78e+06    -  8.37e-02 2.47e-03h  8
   5  4.6449833e+02 1.71e+00 1.85e+07  -1.0 4.72e+06    -  7.58e-02 4.26e-01H  1
   6  4.9107293e+02 1.70e+00 1.84e+07  -1.0 2.57e+07    -  1.39e-01 4.65e-03h  1
   7  4.9500435e+02 1.70e+00 1.84e+07  -1.0 2.82e+07    -  2.98e-01 6.43e-04h  1
   8  1.0709502e+03 1.72e+00 1.72e+07  -1.0 3.32e+07    -  1.32e-01 5.83e-02h  3
   9  2.6651975e+03 1.76e+00 1.77e+07  -1.0 5.60e+07    -  2.11e-01 6.20e-02h  3
iter    objective    inf_pr   inf_du lg(mu)  ||d||  lg(rg) alpha_du alpha_pr  ls
  10  5.9598976e+03 1.79e+00 1.81e+07  -1.0 1.10e+08    -  9.36e-02 4.32e-02h  3
  11  6.2970318e+03 1.78e+00 1.81e+07  -1.0 1.69e+08    -  3.95e-01 2.42e-03h  6
  12  6.3088758e+03 1.78e+00 1.81e+07  -1.0 3.55e+08    -  4.14e-02 3.84e-05h 12
  13  8.8908377e+03 1.78e+00 1.78e+07  -1.0 3.52e+08    -  1.22e-01 7.70e-03h  6
  14  1.3433337e+04 1.78e+00 2.91e+07  -1.0 5.19e+08    -  3.97e-02 7.56e-03h  3
  15  1.6073279e+04 1.78e+00 3.22e+07  -1.0 5.85e+08    -  3.60e-01 3.39e-03h  4
  16r 1.6073279e+04 1.78e+00 1.00e+03   0.3 0.00e+00   0.0 0.00e+00 2.83e-07R  4
  17r 1.6073282e+04 1.60e+00 9.95e+02   0.3 3.44e+03    -  1.06e-02 3.42e-03f  1
  18r 1.6073282e+04 1.60e+00 9.99e+02   0.2 0.00e+00    -  0.00e+00 3.00e-07R  3
  19r 1.6073283e+04 1.60e+00 9.96e+02   0.2 4.16e+03    -  6.34e-03 3.20e-03f  1
iter    objective    inf_pr   inf_du lg(mu)  ||d||  lg(rg) alpha_du alpha_pr  ls
  20r 1.6073285e+04 1.54e+00 9.93e+02   0.2 2.00e+03    -  2.18e-03 2.99e-03f  1
  21r 1.6073288e+04 1.43e+00 9.85e+02   0.2 2.33e+03    -  2.22e-02 7.33e-03f  1
  22r 1.6073288e+04 1.43e+00 9.99e+02   0.2 0.00e+00    -  0.00e+00 2.65e-07R  6
  23r 1.6073296e+04 1.28e+00 9.80e+02   0.2 2.65e+03    -  2.26e-02 1.87e-02f  1
  24  1.6062523e+04 1.28e+00 3.72e+03  -1.0 4.32e+07    -  2.65e-01 2.01e-04f  1
  25  1.1812282e+04 1.26e+00 5.14e+06  -1.0 1.50e+08    -  6.20e-01 2.09e-02f  2
  26  1.0134114e+04 1.23e+00 3.48e+07  -1.0 6.03e+07    -  8.40e-01 2.35e-02f  2
  27  9.7513288e+03 1.22e+00 4.68e+07  -1.0 5.86e+07    -  9.84e-01 5.93e-03f  4
  28  9.0892235e+03 1.21e+00 2.13e+08  -1.0 9.83e+07    -  9.80e-01 6.29e-03f  4
  29  9.3780232e+03 1.21e+00 3.72e+08  -1.0 1.83e+08    -  8.43e-02 1.48e-03h  6
iter    objective    inf_pr   inf_du lg(mu)  ||d||  lg(rg) alpha_du alpha_pr  ls
  30  9.4639162e+03 1.21e+00 1.10e+09  -1.0 2.84e+07    -  3.74e-01 2.80e-03h  5
  31  9.0782656e+03 1.20e+00 3.16e+09  -1.0 8.21e+07    -  8.03e-01 4.39e-03f  4
  32  8.8519532e+03 1.20e+00 4.60e+09  -1.0 5.17e+07    -  9.93e-01 4.16e-03f  4
  33  8.5716021e+03 1.19e+00 9.99e+09  -1.0 3.27e+07    -  3.70e-01 8.27e-03f  3
  34  8.4833776e+03 1.18e+00 1.11e+10  -1.0 2.12e+07    -  3.22e-01 4.07e-03f  4
  35  7.9108506e+03 7.06e+00 7.68e+10  -1.0 1.78e+07    -  3.15e-03 3.25e-02w  1
  36  7.5244836e+03 1.59e+01 7.83e+10  -1.0 1.38e+07    -  9.85e-06 3.02e-02w  1
  37  7.5331309e+03 1.50e+01 2.07e+12  -1.0 7.61e+05   0.4 7.90e-03 5.78e-02w  1
  38  8.4467268e+03 1.18e+00 1.13e+10  -1.0 1.05e+06  -0.1 3.15e-03 2.03e-03f  4
  39  8.5523426e+03 1.18e+00 1.22e+10  -1.0 3.82e+07    -  1.38e-05 2.68e-03h  5
iter    objective    inf_pr   inf_du lg(mu)  ||d||  lg(rg) alpha_du alpha_pr  ls
  40  8.5530310e+03 1.17e+00 4.30e+10  -1.0 8.64e+06  -0.5 3.86e-05 2.82e-03h  5
  41  8.5529700e+03 1.16e+00 6.79e+10  -1.0 8.08e+06  -1.0 2.47e-03 5.66e-03h  4
  42  8.5534921e+03 1.16e+00 1.61e+11  -1.0 2.29e+06   1.2 5.39e-03 1.10e-03h  6
  43  8.5544988e+03 1.15e+00 3.47e+11  -1.0 2.90e+06   0.7 1.83e-02 2.82e-03h  5
  44  8.5554534e+03 1.14e+00 3.88e+11  -1.0 2.19e+06   0.3 3.13e-01 2.84e-03h  5
  45  8.5563197e+03 1.14e+00 3.98e+11  -1.0 2.04e+06  -0.2 1.95e-02 3.04e-03h  5
  46  8.5576703e+03 1.12e+00 3.96e+11  -1.0 2.60e+06  -0.7 4.25e-01 7.59e-03h  4
  47  8.5580058e+03 1.10e+00 3.54e+11  -1.0 3.57e+06  -1.2 9.20e-02 8.56e-03h  4
  48  8.5512412e+03 1.63e+01 1.71e+11  -1.0 2.50e+07  -1.6 1.46e-02 1.23e-02w  1
  49  8.5608837e+03 1.58e+01 8.54e+11  -1.0 2.52e+06  -0.3 5.94e-01 2.82e-02w  1
iter    objective    inf_pr   inf_du lg(mu)  ||d||  lg(rg) alpha_du alpha_pr  ls
  50  1.3894022e+03 1.49e+01 1.85e+12  -1.0 1.73e+08    -  9.69e-01 5.90e-02f  1
  51  1.3894208e+03 1.49e+01 1.71e+12  -1.0 3.70e+07  -0.8 5.81e-03 8.43e-04h  3
  52  1.3894396e+03 1.49e+01 1.29e+13  -1.0 7.02e+05   1.4 1.39e-01 1.31e-04h 10
  53  8.4698859e+02 8.63e+01 9.65e+14  -1.0 1.36e+07    -  1.18e-01 3.12e-01f  1
  54  8.9209498e+02 7.36e+01 5.15e+21  -1.0 3.57e+06   1.0 1.02e-02 1.46e-01h  1
Scaling factors are invalid - setting them all to 1.
Scaling factors are invalid - setting them all to 1.
Scaling factors are invalid - setting them all to 1.
Scaling factors are invalid - setting them all to 1.
Scaling factors are invalid - setting them all to 1.
Scaling factors are invalid - setting them all to 1.
Scaling factors are invalid - setting them all to 1.
Scaling factors are invalid - setting them all to 1.
Scaling factors are invalid - setting them all to 1.
Scaling factors are invalid - setting them all to 1.
Scaling factors are invalid - setting them all to 1.
Scaling factors are invalid - setting them all to 1.
Scaling factors are invalid - setting them all to 1.
Scaling factors are invalid - setting them all to 1.
Scaling factors are invalid - setting them all to 1.
Scaling factors are invalid - setting them all to 1.
WARNING: Problem in step computation; switching to emergency mode.
  55r 8.9209498e+02 7.36e+01 1.00e+03   1.9 0.00e+00  19.2 0.00e+00 0.00e+00R  1
  56r 8.9209496e+02 1.20e+01 2.21e+11   1.9 1.19e+04    -  5.74e-03 5.35e-03f  1
  57  8.9842479e+02 1.18e+01 7.27e+05  -1.0 8.37e+06    -  5.30e-02 1.72e-02h  5
  58  8.9862437e+02 1.18e+01 7.26e+05  -1.0 1.80e+06    -  8.39e-02 1.08e-03H  1
  59  8.9862436e+02 1.18e+01 7.26e+05  -1.0 1.59e+11    -  6.94e-11 3.20e-12f 10
iter    objective    inf_pr   inf_du lg(mu)  ||d||  lg(rg) alpha_du alpha_pr  ls
  60  8.9862432e+02 1.18e+01 7.26e+05  -1.0 1.57e+11    -  7.26e-11 2.08e-10f  4
  61  8.9862432e+02 1.18e+01 7.26e+05  -1.0 5.74e+10    -  2.78e-10 1.55e-11f  9
  62  8.9862432e+02 1.18e+01 7.26e+05  -1.0 5.45e+10    -  2.94e-10 7.94e-15f 20
  63  8.9862432e+02 1.18e+01 7.26e+05  -1.0 5.45e+10    -  3.17e-10 8.13e-12f 10
  64  8.9862490e+02 1.05e+02 9.75e+12  -1.0 5.31e+10    -  4.87e-09 2.13e-09f  2
  65  8.9862490e+02 1.05e+02 1.20e+14  -1.0 4.45e-03  14.0 9.90e-01 1.00e+00h  1
  66  9.0316374e+02 1.03e+02 5.79e+24  -1.0 9.55e+06  13.5 5.90e-02 1.83e-02h  2
  67  1.1286199e+03 7.88e+01 2.63e+27  -1.0 9.26e+06  13.0 1.12e-01 2.33e-01h  1
  68  1.3385508e+03 7.66e+01 2.56e+27  -1.0 2.17e+07  12.6 9.11e-02 2.79e-02h  2
  69  3.3668494e+03 6.73e+01 2.15e+27  -1.0 2.22e+07  12.1 1.06e-01 1.21e-01h  2
iter    objective    inf_pr   inf_du lg(mu)  ||d||  lg(rg) alpha_du alpha_pr  ls
  70  3.5185965e+03 6.42e+01 2.12e+27  -1.0 1.66e+07  11.6 8.97e-02 4.58e-02h  4
  71  3.3548981e+03 5.20e+01 4.80e+27  -1.0 1.88e+07  11.1 5.17e-02 1.90e-01f  1
Scaling factors are invalid - setting them all to 1.
MA27BD returned iflag=-4 and requires more memory.
 Increase liw from 19240 to 38480 and la from 22500 to 45866 and factorize again.
Scaling factors are invalid - setting them all to 1.
Scaling factors are invalid - setting them all to 1.
Scaling factors are invalid - setting them all to 1.
Scaling factors are invalid - setting them all to 1.
Scaling factors are invalid - setting them all to 1.
Scaling factors are invalid - setting them all to 1.
Scaling factors are invalid - setting them all to 1.
Scaling factors are invalid - setting them all to 1.
Scaling factors are invalid - setting them all to 1.
Scaling factors are invalid - setting them all to 1.
Scaling factors are invalid - setting them all to 1.
Scaling factors are invalid - setting them all to 1.
Scaling factors are invalid - setting them all to 1.
WARNING: Problem in step computation; switching to emergency mode.
  72r 3.3548981e+03 5.20e+01 9.99e+02   1.7 0.00e+00  19.2 0.00e+00 0.00e+00R  1
  73r 3.3548981e+03 1.60e+02 9.91e+02   1.7 2.82e+04    -  1.41e-02 1.83e-03f  1
  74r 3.3548979e+03 8.02e+00 9.74e+02   1.7 1.07e+03    -  3.55e-02 9.54e-03f  1
  75  3.2738634e+03 9.33e+00 1.72e+03  -1.0 1.08e+07    -  1.06e-01 8.60e-02f  4
  76  3.4405787e+03 9.90e+00 1.38e+05  -1.0 9.49e+06    -  7.35e-02 3.85e-01h  1
  77  3.4445022e+03 9.89e+00 1.38e+05  -1.0 1.45e+07    -  8.40e-03 1.06e-03h  5
  78  3.3752296e+03 9.72e+00 1.35e+05  -1.0 6.86e+06    -  9.47e-02 1.75e-02f  1
  79  3.3752124e+03 8.48e+00 2.29e+05  -1.0 2.38e+03  -2.0 7.25e-01 1.27e-01h  1
iter    objective    inf_pr   inf_du lg(mu)  ||d||  lg(rg) alpha_du alpha_pr  ls
  80  3.3752203e+03 8.48e+00 2.30e+05  -1.0 1.87e+06  -2.5 8.05e-03 3.82e-05h  5
  81  3.3705545e+03 8.48e+00 2.29e+05  -1.0 1.07e+07    -  1.34e-01 5.84e-04f  1
  82  3.3834148e+03 8.47e+00 2.56e+06  -1.0 1.16e+07    -  2.82e-07 1.39e-04H  1
  83  3.3834153e+03 8.47e+00 2.56e+06  -1.0 2.04e+06  -3.0 2.56e-03 1.35e-05h  1
  84  3.3834153e+03 8.47e+00 2.56e+06  -1.0 2.09e+06  -3.4 2.52e-03 1.33e-07H  1
  85  3.3428466e+03 9.19e+00 4.73e+11  -1.0 7.42e+08    -  6.70e-06 2.33e-04f  1
  86  3.3428014e+03 9.19e+00 4.73e+11  -1.0 2.17e+06  -3.9 2.63e-03 2.69e-04H  1
  87  3.3427996e+03 9.19e+00 4.73e+11  -1.0 2.17e+06  -4.4 5.81e-01 2.71e-06h  1
  88  3.3425467e+03 9.18e+00 4.73e+11  -1.0 2.16e+06  -4.9 2.41e-03 9.01e-04f  2
  89  3.3405873e+03 9.14e+00 4.71e+11  -1.0 2.16e+06  -5.3 5.89e-03 4.27e-03f  1
iter    objective    inf_pr   inf_du lg(mu)  ||d||  lg(rg) alpha_du alpha_pr  ls
  90  3.3422271e+03 9.04e+00 4.66e+11  -1.0 2.14e+06  -5.8 7.33e-01 1.14e-02h  1
  91  3.3574418e+03 8.94e+00 4.60e+11  -1.0 3.32e+06  -6.3 1.91e-02 1.08e-02h  2
  92  3.3604844e+03 8.93e+00 4.60e+11  -1.0 9.51e+06  -6.8 4.20e-01 5.10e-04h  7
  93r 3.3604844e+03 8.93e+00 1.00e+03   1.0 0.00e+00  -6.3 0.00e+00 3.45e-07R 16
  94r 3.3604846e+03 7.31e+00 1.23e+03   1.0 7.47e+03    -  8.47e-03 1.09e-03f  1
  95  3.3612666e+03 4.67e+00 1.95e+04  -1.0 1.93e+06    -  3.92e-05 7.93e-03h  1
  96  3.3655385e+03 5.00e+00 2.50e+05  -1.0 1.85e+06    -  2.69e-05 3.32e-02h  3
  97  3.3656640e+03 5.03e+00 2.49e+05  -1.0 1.64e+06    -  7.85e-02 1.20e-03h  6
  98  3.4194581e+03 1.22e+01 2.17e+07  -1.0 1.68e+06    -  8.40e-02 3.56e-01H  1
  99  3.4194506e+03 1.22e+01 2.17e+07  -1.0 1.04e+06    -  3.65e-01 3.09e-04h  6
iter    objective    inf_pr   inf_du lg(mu)  ||d||  lg(rg) alpha_du alpha_pr  ls
 100  3.4199318e+03 1.19e+01 2.10e+07  -1.0 1.04e+06    -  3.26e-01 3.22e-02h  1
 101  3.4199491e+03 1.19e+01 2.10e+07  -1.0 1.07e+06    -  2.43e-01 1.64e-04h  1
 102r 3.4199491e+03 1.19e+01 1.00e+03   1.1 0.00e+00    -  0.00e+00 3.54e-07R  6
 103r 3.4199487e+03 1.19e+01 1.10e+03   1.1 2.52e+03    -  5.46e-02 2.49e-03f  1
 104r 3.4199487e+03 1.18e+01 1.06e+12   1.1 1.34e+02   0.0 2.31e-02 7.51e-03f  1
 105r 3.4199487e+03 1.18e+01 7.00e+15   1.1 3.85e+00   7.4 7.35e-03 3.21e-03h  1
 106r 3.4199487e+03 1.25e+01 5.38e+19   1.1 6.23e-03  12.7 9.90e-01 1.00e+00f  1
Scaling factors are invalid - setting them all to 1.
Scaling factors are invalid - setting them all to 1.
Scaling factors are invalid - setting them all to 1.
Scaling factors are invalid - setting them all to 1.
Scaling factors are invalid - setting them all to 1.
Scaling factors are invalid - setting them all to 1.
Scaling factors are invalid - setting them all to 1.
Scaling factors are invalid - setting them all to 1.
Scaling factors are invalid - setting them all to 1.
Scaling factors are invalid - setting them all to 1.
 107r 3.4199487e+03 1.18e+01 4.59e+20   1.1 2.34e-08  17.2 9.90e-01 1.00e+00H  1
Scaling factors are invalid - setting them all to 1.
Scaling factors are invalid - setting them all to 1.
Scaling factors are invalid - setting them all to 1.
Scaling factors are invalid - setting them all to 1.
Scaling factors are invalid - setting them all to 1.
Scaling factors are invalid - setting them all to 1.
Scaling factors are invalid - setting them all to 1.
Scaling factors are invalid - setting them all to 1.
WARNING: Problem in step computation; switching to emergency mode.
 108r 3.4199487e+03 1.18e+01 4.59e+20   1.1 2.34e-08  19.9 0.00e+00 0.00e+00R  1
Scaling factors are invalid - setting them all to 1.
Scaling factors are invalid - setting them all to 1.
Scaling factors are invalid - setting them all to 1.
Scaling factors are invalid - setting them all to 1.
Scaling factors are invalid - setting them all to 1.
Scaling factors are invalid - setting them all to 1.
Scaling factors are invalid - setting them all to 1.
Scaling factors are invalid - setting them all to 1.
Scaling factors are invalid - setting them all to 1.
Scaling factors are invalid - setting them all to 1.
Scaling factors are invalid - setting them all to 1.
Scaling factors are invalid - setting them all to 1.
Scaling factors are invalid - setting them all to 1.
Scaling factors are invalid - setting them all to 1.
WARNING: Problem in step computation; switching to emergency mode.
Restoration phase is called at point that is almost feasible,
  with constraint violation 0.000000e+00. Abort.
Restoration phase in the restoration phase failed.

Number of Iterations....: 108

                                   (scaled)                 (unscaled)
Objective...............:   3.4199487425026532e+03    3.4199487425026532e+03
Dual infeasibility......:   4.5895271485677496e+20    4.5895271485677496e+20
Constraint violation....:   1.1790295048957059e+01    1.1790295048957059e+01
Complementarity.........:   2.5081690133507480e+04    2.5081690133507480e+04
Overall NLP error.......:   1.6872271129724274e+16    4.5895271485677496e+20


Number of objective function evaluations             = 454
Number of objective gradient evaluations             = 99
Number of equality constraint evaluations            = 454
Number of inequality constraint evaluations          = 0
Number of equality constraint Jacobian evaluations   = 114
Number of inequality constraint Jacobian evaluations = 0
Number of Lagrangian Hessian evaluations             = 109
Total CPU secs in IPOPT (w/o function evaluations)   =      0.398
Total CPU secs in NLP function evaluations           =      3.551

EXIT: Restoration Failed!
